p cnf 6 12
c without miter
c 1, 2, 3 inputs
c 5, 6 outputs
c It gives 2 times true, when all inputs are 0 or all are 1 (or - and)
c sim  6,5
-4 1 2 0
4 -1 0
4 -2 0
-5 3 4 0
5 -3 0
5 -4 0
6 -1 -2 -3 0
-6 1 0
-6 2 0
-6 3 0
6 0
5 0

